TYPE : Vertex Cover
DIMENSION: 35
EDGE_DATA_SECTION:
0 3
0 16
0 19
0 20
0 25
0 29
0 32
0 33
1 6
1 7
1 9
1 10
1 12
1 18
1 25
1 31
2 13
2 20
2 23
2 24
2 28
2 32
3 7
3 8
3 13
3 15
3 18
3 20
3 27
3 29
3 31
3 32
4 9
4 10
4 14
4 17
4 19
4 20
4 22
4 25
4 27
4 30
4 32
5 15
5 19
5 20
5 21
5 23
5 24
5 30
6 9
6 18
6 20
6 24
6 25
6 34
7 10
7 13
7 16
7 19
7 22
7 27
7 29
8 9
8 15
8 21
8 22
8 24
8 25
8 30
8 31
9 13
9 15
9 19
9 25
9 26
9 27
9 31
9 34
10 11
10 12
10 16
10 25
10 26
10 27
10 28
10 34
11 14
11 15
11 19
11 20
11 21
11 22
11 25
11 28
12 15
12 16
12 18
12 20
12 23
12 27
12 28
12 32
12 33
13 15
13 17
13 20
13 22
13 24
13 30
13 32
13 34
14 15
14 23
14 30
14 31
14 33
15 17
15 20
15 23
15 25
15 26
15 29
15 33
16 22
16 23
16 24
16 29
16 31
16 34
17 19
17 20
17 21
17 22
17 23
17 26
17 31
18 19
18 26
18 28
18 34
19 22
19 25
19 27
19 28
19 34
20 24
20 28
20 30
20 31
21 24
21 25
21 29
21 30
21 31
21 33
22 23
22 24
22 25
22 33
22 34
23 31
23 33
24 27
25 32
25 34
26 29
26 34
27 29
27 30
28 29
28 33
29 34
30 32
30 34
32 34
-1
VERTEX_DEGREE:
8.0 8.0 6.0 11.0 11.0 7.0 7.0 9.0 9.0 12.0 11.0 9.0 11.0 12.0 7.0 15.0 10.0 10.0 8.0 13.0 15.0 10.0 13.0 10.0 10.0 14.0 7.0 10.0 9.0 10.0 10.0 10.0 9.0 8.0 13.0
VERTEX_COVER:
1 3 9 10 13 14 15 16 17 18 19 20 21 22 23 24 25 27 28 29 30 31 32 33 34
EOF
